20
1 0 1
2 0 3
2 1 1
3 0 3
3 1 1
3 2 4
4 0 3
4 1 2
4 2 1
4 3 2
5 0 1
5 1 4
5 2 2
5 3 2
5 4 4
6 0 3
6 1 2
6 2 3
6 3 4
6 4 3
6 5 1
7 0 2
7 1 3
7 2 2
7 3 1
7 4 4
7 5 2
7 6 2
8 0 4
8 1 3
8 2 1
8 3 1
8 4 3
8 5 2
8 6 2
8 7 4
9 0 2
9 1 4
9 2 2
9 3 1
9 4 3
9 5 1
9 6 3
9 7 4
9 8 3
10 0 4
10 1 2
10 2 1
10 3 3
10 4 3
10 5 3
10 6 2
10 7 1
10 8 4
10 9 1
11 0 4
11 1 1
11 2 1
11 3 3
11 4 1
11 5 1
11 6 1
11 7 3
11 8 1
11 9 1
11 10 3
12 0 2
12 1 3
12 2 2
12 3 2
12 4 1
12 5 3
12 6 3
12 7 4
12 8 1
12 9 1
12 10 1
12 11 4
13 0 4
13 1 2
13 2 2
13 3 1
13 4 4
13 5 4
13 6 1
13 7 4
13 8 3
13 9 2
13 10 3
13 11 2
13 12 2
14 0 3
14 1 3
14 2 2
14 3 2
14 4 3
14 5 2
14 6 3
14 7 2
14 8 2
14 9 1
14 10 2
14 11 4
14 12 4
14 13 1
15 0 4
15 1 3
15 2 1
15 3 1
15 4 2
15 5 4
15 6 4
15 7 3
15 8 4
15 9 2
15 10 3
15 11 4
15 12 2
15 13 3
15 14 1
16 0 3
16 1 2
16 2 2
16 3 1
16 4 2
16 5 2
16 6 3
16 7 2
16 8 4
16 9 4
16 10 2
16 11 3
16 12 3
16 13 2
16 14 2
16 15 2
17 0 2
17 1 4
17 2 3
17 3 2
17 4 2
17 5 1
17 6 3
17 7 3
17 8 4
17 9 3
17 10 4
17 11 3
17 12 3
17 13 2
17 14 2
17 15 4
17 16 4
18 0 4
18 1 3
18 2 3
18 3 4
18 4 3
18 5 2
18 6 4
18 7 4
18 8 1
18 9 1
18 10 1
18 11 3
18 12 2
18 13 3
18 14 1
18 15 4
18 16 4
18 17 2
19 0 2
19 1 4
19 2 3
19 3 1
19 4 2
19 5 2
19 6 2
19 7 3
19 8 1
19 9 3
19 10 3
19 11 4
19 12 2
19 13 2
19 14 2
19 15 2
19 16 2
19 17 4
19 18 2
